Grasp exp. instance_n_25_m_5_id_5.lp tipoLifted 0 szPool 5 nIteration 20 alpha 1 
Academic license - for non-commercial use only
Read LP format model from file ../input/instancesGenerated/instance_n_25_m_5_id_5.lp
Reading time = 0.00 seconds
: 5 rows, 25 columns, 125 nonzeros
Optimize a model with 5 rows, 25 columns and 125 nonzeros
Variable types: 0 continuous, 25 integer (25 binary)
Coefficient statistics:
  Matrix range     [1e+00, 1e+01]
  Objective range  [1e+00, 1e+01]
  Bounds range     [1e+00, 1e+00]
  RHS range        [5e+01, 7e+01]
Found heuristic solution: objective 66.0000000

Explored 0 nodes (0 simplex iterations) in 0.00 seconds
Thread count was 1 (of 8 available processors)

Solution count 1: 66 
No other solutions better than 0

Solution limit reached
Best objective 6.600000000000e+01, best bound -, gap -
C_1:	 7.00 x_1  = 1.000000 + 8.00 x_2  = 0.000000 + 3.00 x_3  = 0.953878 + 5.00 x_4  = 1.000000 + 2.00 x_5  = 1.000000 + 3.00 x_6  = 1.000000 + 6.00 x_7  = 0.000000 + 4.00 x_8  = 1.000000 + 2.00 x_9  = 0.000000 + 7.00 x_10  = 0.000000 + 3.00 x_11  = 0.000000 + 8.00 x_12  = 0.571279 + 1.00 x_13  = 1.000000 + 2.00 x_14  = 0.000000 + 1.00 x_15  = 0.000000 + 1.00 x_16  = 0.670860 + 5.00 x_17  = 0.716981 + 9.00 x_18  = 0.000000 + 2.00 x_19  = 0.000000 + 1.00 x_20  = 1.000000 + 1.00 x_21  = 1.000000 + 9.00 x_22  = 0.000000 + 6.00 x_23  = 1.000000 + 1.00 x_24  = 1.000000 + 4.00 x_25  = 0.000000 <= 50.00
C_2:	 4.00 x_1  = 1.000000 + 9.00 x_2  = 0.000000 + 8.00 x_3  = 0.953878 + 2.00 x_4  = 1.000000 + 6.00 x_5  = 1.000000 + 3.00 x_6  = 1.000000 + 8.00 x_7  = 0.000000 + 5.00 x_8  = 1.000000 + 5.00 x_9  = 0.000000 + 4.00 x_10  = 0.000000 + 8.00 x_11  = 0.000000 + 10.00 x_12  = 0.571279 + 9.00 x_13  = 1.000000 + 2.00 x_14  = 0.000000 + 1.00 x_15  = 0.000000 + 5.00 x_16  = 0.670860 + 6.00 x_17  = 0.716981 + 10.00 x_18  = 0.000000 + 7.00 x_19  = 0.000000 + 7.00 x_20  = 1.000000 + 2.00 x_21  = 1.000000 + 10.00 x_22  = 0.000000 + 3.00 x_23  = 1.000000 + 10.00 x_24  = 1.000000 + 1.00 x_25  = 0.000000 <= 72.00
C_3:	 3.00 x_1  = 1.000000 + 1.00 x_2  = 0.000000 + 9.00 x_3  = 0.953878 + 9.00 x_4  = 1.000000 + 1.00 x_5  = 1.000000 + 4.00 x_6  = 1.000000 + 4.00 x_7  = 0.000000 + 1.00 x_8  = 1.000000 + 2.00 x_9  = 0.000000 + 5.00 x_10  = 0.000000 + 8.00 x_11  = 0.000000 + 4.00 x_12  = 0.571279 + 4.00 x_13  = 1.000000 + 4.00 x_14  = 0.000000 + 1.00 x_15  = 0.000000 + 7.00 x_16  = 0.670860 + 2.00 x_17  = 0.716981 + 10.00 x_18  = 0.000000 + 5.00 x_19  = 0.000000 + 3.00 x_20  = 1.000000 + 2.00 x_21  = 1.000000 + 1.00 x_22  = 0.000000 + 8.00 x_23  = 1.000000 + 1.00 x_24  = 1.000000 + 7.00 x_25  = 0.000000 <= 53.00
C_4:	 6.00 x_1  = 1.000000 + 2.00 x_2  = 0.000000 + 6.00 x_3  = 0.953878 + 8.00 x_4  = 1.000000 + 3.00 x_5  = 1.000000 + 6.00 x_6  = 1.000000 + 10.00 x_7  = 0.000000 + 5.00 x_8  = 1.000000 + 6.00 x_9  = 0.000000 + 8.00 x_10  = 0.000000 + 7.00 x_11  = 0.000000 + 10.00 x_12  = 0.571279 + 1.00 x_13  = 1.000000 + 7.00 x_14  = 0.000000 + 1.00 x_15  = 0.000000 + 7.00 x_16  = 0.670860 + 4.00 x_17  = 0.716981 + 6.00 x_18  = 0.000000 + 10.00 x_19  = 0.000000 + 8.00 x_20  = 1.000000 + 8.00 x_21  = 1.000000 + 6.00 x_22  = 0.000000 + 1.00 x_23  = 1.000000 + 7.00 x_24  = 1.000000 + 2.00 x_25  = 0.000000 <= 72.00
C_5:	 3.00 x_1  = 1.000000 + 8.00 x_2  = 0.000000 + 2.00 x_3  = 0.953878 + 2.00 x_4  = 1.000000 + 10.00 x_5  = 1.000000 + 1.00 x_6  = 1.000000 + 7.00 x_7  = 0.000000 + 3.00 x_8  = 1.000000 + 6.00 x_9  = 0.000000 + 6.00 x_10  = 0.000000 + 8.00 x_11  = 0.000000 + 4.00 x_12  = 0.571279 + 5.00 x_13  = 1.000000 + 2.00 x_14  = 0.000000 + 1.00 x_15  = 0.000000 + 5.00 x_16  = 0.670860 + 9.00 x_17  = 0.716981 + 2.00 x_18  = 0.000000 + 7.00 x_19  = 0.000000 + 7.00 x_20  = 1.000000 + 4.00 x_21  = 1.000000 + 4.00 x_22  = 0.000000 + 3.00 x_23  = 1.000000 + 10.00 x_24  = 1.000000 + 5.00 x_25  = 0.000000 <= 62.00
Solution initial: 105.818658 
Number Constraints Used in Cover:5
GRASP Method!
Number cuts repeat: 0
value: 105.818658
Number Constraints Used in Cover:8
GRASP Method!
Number cuts repeat: 0
value: 105.818658
Number Constraints Used in Cover:11
GRASP Method!
Number cuts repeat: 0
value: 105.818658
Number Constraints Used in Cover:13
GRASP Method!
Number cuts repeat: 0
value: 105.818658
Number Constraints Used in Cover:15
GRASP Method!
Number cuts repeat: 0
value: 105.818658
Number Constraints Used in Cover:20
GRASP Method!
Number cuts repeat: 0
value: 105.818658
Number Constraints Used in Cover:23
GRASP Method!
Number cuts repeat: 0
value: 105.818658
Number Constraints Used in Cover:27
GRASP Method!
Number cuts repeat: 0
value: 105.818658
Number Constraints Used in Cover:31
GRASP Method!
Number cuts repeat: 0
value: 105.818658
Number Constraints Used in Cover:33
GRASP Method!
Number cuts repeat: 0
value: 105.818658
Number Constraints Used in Cover:38
GRASP Method!
Number cuts repeat: 0
value: 105.818658
Number Constraints Used in Cover:40
GRASP Method!
Number cuts repeat: 0
value: 105.818658
Number Constraints Used in Cover:45
GRASP Method!
Number cuts repeat: 0
value: 105.818658
Number Constraints Used in Cover:53
GRASP Method!
Number cuts repeat: 0
value: 105.818658
Number Constraints Used in Cover:58
GRASP Method!
Number cuts repeat: 0
value: 105.818658
Number Constraints Used in Cover:65
GRASP Method!
Number cuts repeat: 0
value: 105.818658
Number Constraints Used in Cover:73
GRASP Method!
Number cuts repeat: 0
value: 105.818658
Number Constraints Used in Cover:80
GRASP Method!
Number cuts repeat: 0
value: 105.818658
Number Constraints Used in Cover:84
GRASP Method!
Number cuts repeat: 0
value: 105.818658
Number Constraints Used in Cover:93
GRASP Method!
Number cuts repeat: 0
value: 105.818658
Number Constraints Used in Cover:102
GRASP Method!
Number cuts repeat: 0
value: 105.818658
Number Constraints Used in Cover:114
GRASP Method!
Number cuts repeat: 0
value: 105.818658
Number Constraints Used in Cover:123
GRASP Method!
Number cuts repeat: 0
value: 105.818658
Number Constraints Used in Cover:135
GRASP Method!
Number cuts repeat: 0
value: 105.818658
Number Constraints Used in Cover:145
GRASP Method!
Number cuts repeat: 0
value: 105.818658
Number Constraints Used in Cover:155
GRASP Method!
Number cuts repeat: 0
value: 105.818658
Number Constraints Used in Cover:169
GRASP Method!
Number cuts repeat: 0
value: 105.818658
Number Constraints Used in Cover:184
GRASP Method!
Number cuts repeat: 0
value: 105.818658
Number Constraints Used in Cover:198
GRASP Method!
Number cuts repeat: 0
value: 105.818658
Number Constraints Used in Cover:219
GRASP Method!
Number cuts repeat: 0
value: 105.818658
Number Constraints Used in Cover:233
GRASP Method!
Number cuts repeat: 0
value: 105.818658
Number Constraints Used in Cover:247
GRASP Method!
Number cuts repeat: 0
value: 105.818658
Number Constraints Used in Cover:260
GRASP Method!
Number cuts repeat: 0
value: 105.818658
Number Constraints Used in Cover:272
GRASP Method!
Number cuts repeat: 0
value: 105.818658
Number Constraints Used in Cover:289
GRASP Method!
Number cuts repeat: 0
value: 105.818658
Number Constraints Used in Cover:308
GRASP Method!
Number cuts repeat: 0
value: 105.818658
Number Constraints Used in Cover:323
GRASP Method!
Number cuts repeat: 0
value: 105.818658
Number Constraints Used in Cover:334
GRASP Method!
Number cuts repeat: 0
value: 105.818658
Number Constraints Used in Cover:355
GRASP Method!
Number cuts repeat: 0
value: 105.818658
Number Constraints Used in Cover:374
GRASP Method!
Number cuts repeat: 0
value: 105.818658
Number Constraints Used in Cover:389
GRASP Method!
Number cuts repeat: 0
value: 105.818658
Number Constraints Used in Cover:402
GRASP Method!
Number cuts repeat: 0
value: 105.818658
Number Constraints Used in Cover:417
GRASP Method!
Number cuts repeat: 0
value: 105.818658
Number Constraints Used in Cover:434
GRASP Method!
Number cuts repeat: 0
value: 105.818658
Number Constraints Used in Cover:450
GRASP Method!
Number cuts repeat: 0
value: 105.818658
Number Constraints Used in Cover:466
GRASP Method!
Number cuts repeat: 0
value: 105.818658
Number Constraints Used in Cover:475
GRASP Method!
Number cuts repeat: 0
value: 105.818658
Number Constraints Used in Cover:487
GRASP Method!
Number cuts repeat: 0
value: 105.818658
Number Constraints Used in Cover:502
GRASP Method!
Number cuts repeat: 0
value: 105.818658
Number Constraints Used in Cover:517
GRASP Method!
Number cuts repeat: 0
value: 105.818658
Number Constraints Used in Cover:540
GRASP Method!
Number cuts repeat: 0
value: 105.818658
Number Constraints Used in Cover:558
GRASP Method!
Number cuts repeat: 0
value: 105.818658
Number Constraints Used in Cover:571
GRASP Method!
Number cuts repeat: 0
value: 105.818658
Number Constraints Used in Cover:588
GRASP Method!
Number cuts repeat: 0
value: 105.818658
Number Constraints Used in Cover:603
GRASP Method!
Number cuts repeat: 0
value: 105.818658
Number Constraints Used in Cover:617
GRASP Method!
Number cuts repeat: 0
value: 105.818658
Number Constraints Used in Cover:636
GRASP Method!
Number cuts repeat: 0
value: 105.818658
Number Constraints Used in Cover:653
GRASP Method!
Number cuts repeat: 0
value: 105.818658
Number Constraints Used in Cover:670
GRASP Method!
Number cuts repeat: 0
value: 105.818658
Number Constraints Used in Cover:688
GRASP Method!
Number cuts repeat: 0
value: 105.818658
Number Constraints Used in Cover:702
GRASP Method!
Number cuts repeat: 0
value: 105.818658
Number Constraints Used in Cover:717
GRASP Method!
Number cuts repeat: 0
value: 105.818658
Number Constraints Used in Cover:732
GRASP Method!
Number cuts repeat: 0
value: 105.818658
Number Constraints Used in Cover:754
GRASP Method!
Number cuts repeat: 0
value: 105.818658
Number Constraints Used in Cover:771
GRASP Method!
Number cuts repeat: 0
value: 105.818658
Number Constraints Used in Cover:789
GRASP Method!
Number cuts repeat: 0
value: 105.818658
Number Constraints Used in Cover:806
GRASP Method!
Number cuts repeat: 0
value: 105.818658
Number Constraints Used in Cover:824
GRASP Method!
Number cuts repeat: 0
value: 105.818658
Number Constraints Used in Cover:845
GRASP Method!
Number cuts repeat: 0
value: 105.818658
Number Constraints Used in Cover:861
GRASP Method!
Number cuts repeat: 0
value: 105.818658
Number Constraints Used in Cover:881
GRASP Method!
Number cuts repeat: 0
value: 105.818658
Number Constraints Used in Cover:903
GRASP Method!
Number cuts repeat: 0
value: 105.818658
Number Constraints Used in Cover:928
GRASP Method!
Number cuts repeat: 0
value: 105.818658
Number Constraints Used in Cover:946
GRASP Method!
Number cuts repeat: 0
value: 105.818658
Number Constraints Used in Cover:971
GRASP Method!
Number cuts repeat: 0
value: 105.818658
Number Constraints Used in Cover:992
GRASP Method!
Number cuts repeat: 0
value: 105.818658
Number Constraints Used in Cover:1013
GRASP Method!
Number cuts repeat: 0
value: 105.818658
Number Constraints Used in Cover:1033
GRASP Method!
Number cuts repeat: 0
value: 105.818658
Number Cuts Final: 1040
